param size := 9;

param nsubsets := 3;

set ROWSUBS[1] := 1 2 3;
set ROWSUBS[2] := 4 5 6;
set ROWSUBS[3] := 7 8 9;

set COLSUBS[1] := 1 2 3;
set COLSUBS[2] := 4 5 6;
set COLSUBS[3] := 7 8 9;

set KNOWN :=
1 1 1
3 1 3
6 1 4
5 1 6
4 1 7
9 1 9
5 2 3
1 2 7
3 2 9
9 4 1
2 4 4
4 4 6
5 4 9
1 5 3
8 5 4
7 5 6
9 5 7
5 6 1
1 6 4
3 6 6
8 6 9
7 8 1
2 8 3
6 8 7
4 9 1
9 9 3
3 9 4
2 9 6
5 9 7
1 9 9;
